
Gurobi 12.0.1 (win64, gurobi_cl) logging started Thu Feb 13 12:50:02 2025

Set parameter Username
Set parameter LicenseID to value 2621303
Set parameter LogFile to value "gurobi.log"
Using license file E:\Gurobi License File\gurobi.lic
Academic license - for non-commercial use only - expires 2026-02-12

Gurobi Optimizer version 12.0.1 build v12.0.1rc0 (win64 - Windows 11.0 (22631.2))
Copyright (c) 2025, Gurobi Optimization, LLC

Read LP format model from file infeasible_model.lp
Reading time = 0.25 seconds
Objective: 140644 rows, 66967 columns, 320880 nonzeros

Using Gurobi shared library D:\gurobi1201\win64\bin\gurobi120.dll

CPU model: Intel(R) Core(TM) Ultra 9 185H, instruction set [SSE2|AVX|AVX2]
Thread count: 16 physical cores, 22 logical processors, using up to 22 threads

Optimize a model with 140644 rows, 66967 columns and 320880 nonzeros
Model fingerprint: 0x690e5b7a
Variable types: 32407 continuous, 34560 integer (34560 binary)
Coefficient statistics:
  Matrix range     [3e-02, 1e+06]
  Objective range  [1e+02, 6e+03]
  Bounds range     [1e+00, 6e+01]
  RHS range        [3e-04, 1e+06]
Presolve removed 12258 rows and 3613 columns
Presolve time: 0.01s

Explored 0 nodes (0 simplex iterations) in 0.04 seconds (0.07 work units)
Thread count was 1 (of 22 available processors)

Solution count 0

Model is infeasible or unbounded
Best objective -, best bound -, gap -

Unable to retrieve attribute 'X'

